15
13
14 11 10 2 9 4 5 1 13 7 3 12 8 6
0 5 2 6 7 3 10 13 12 11 1 14 9
0
5 2 4
10 5 6 11
14 7 9 6 13
3 9 4
8 3 0 1 4 6 7 11 13 9 14 12 5 10 2
1 12 3 4 10 8
5 11 4 8 10 12 1 6 9 0 14 7 3
0 14 1 3 13 10 6 4 8 5 9 12 7
3 13 5 14 7
0 7 10 4
